Problem:    
Rows:       105
Columns:    45 (34 integer, 34 binary)
Non-zeros:  302
Status:     INTEGER OPTIMAL
Objective:  value = 83.36722 (MINimum)

   No.   Row name        Activity     Lower bound   Upper bound
------ ------------    ------------- ------------- -------------
     1 r.5                   583.367             0               
     2 r.6                  -416.633      -486.941               
     3 r.7                   83.3672             0               
     4 r.8                  -410.372      -493.739               
     5 r.9                   83.3672             0               
     6 r.10                  5.15652      -382.959               
     7 r.11                  583.367             0               
     8 r.12                 -426.406      -441.277               
     9 r.13                  583.367             0               
    10 r.14                 -429.692      -434.848               
    11 r.15                  83.3672             0               
    12 r.16                  14.8709      -467.505               
    13 r.17                  83.3672             0               
    14 r.18                 -111.884       -483.39               
    15 r.19                  583.367             0               
    16 r.20                 -416.633      -490.226               
    17 r.21                  583.367             0               
    18 r.22                   -499.3        -499.3               
    19 r.23                  83.3672             0               
    20 r.24                   0.6996      -498.271               
    21 r.25                        1             1             = 
    22 r.26                        1             1             = 
    23 r.27                        1             1             = 
    24 r.28                        1             1             = 
    25 r.29                        1             1             = 
    26 r.30                  421.789       117.041               
    27 r.31                 -421.789      -486.941               
    28 r.32                  483.965       58.7228               
    29 r.33                 -483.965      -493.739               
    30 r.34                  486.941       65.1519               
    31 r.35                 -486.941      -486.941               
    32 r.36                  425.243       32.4954               
    33 r.37                 -425.243      -493.739               
    34 r.38                  304.749       16.6098               
    35 r.39                 -304.749      -486.941               
    36 r.40                  493.739        9.7735               
    37 r.41                 -493.739      -493.739               
    38 r.42                 -417.332      -482.484               
    39 r.43                 -411.071      -480.134               
    40 r.44                 -417.332      -482.484               
    41 r.45                 -411.071      -480.134               
    42 r.46                  78.2107       13.0588               
    43 r.47                 -78.2107      -382.959               
    44 r.48                  16.0347        6.2612               
    45 r.49                 -16.0347      -441.277               
    46 r.50                  65.1519       65.1519               
    47 r.51                 -65.1519      -382.959               
    48 r.52                  441.277       32.4954               
    49 r.53                 -441.277      -441.277               
    50 r.54                  382.959       16.6098               
    51 r.55                 -382.959      -382.959               
    52 r.56                   9.7735        9.7735               
    53 r.57                  -9.7735      -441.277               
    54 r.58                  4.45692      -378.502               
    55 r.59                 -427.106      -427.672               
    56 r.60                  4.45692      -378.502               
    57 r.61                 -427.106      -427.672               
    58 r.62                  13.0588       13.0588               
    59 r.63                 -13.0588      -434.848               
    60 r.64                  74.7575        6.2612               
    61 r.65                 -74.7575      -467.505               
    62 r.66                  434.848       117.041               
    63 r.67                 -434.848      -434.848               
    64 r.68                  58.7228       58.7228               
    65 r.69                 -58.7228      -467.505               
    66 r.70                  317.808       16.6098               
    67 r.71                 -317.808      -434.848               
    68 r.72                  68.4963        9.7735               
    69 r.73                 -68.4963      -467.505               
    70 r.74                 -430.391      -430.391               
    71 r.75                  14.1713        -453.9               
    72 r.76                 -430.391      -430.391               
    73 r.77                  14.1713        -453.9               
    74 r.78                  195.251       13.0588               
    75 r.79                 -195.251       -483.39               
    76 r.80                   6.2612        6.2612               
    77 r.81                  -6.2612      -490.226               
    78 r.82                  117.041       117.041               
    79 r.83                 -117.041       -483.39               
    80 r.84                  490.226       58.7228               
    81 r.85                 -490.226      -490.226               
    82 r.86                  182.192       65.1519               
    83 r.87                 -182.192       -483.39               
    84 r.88                  431.504       32.4954               
    85 r.89                 -431.504      -490.226               
    86 r.90                 -112.584      -478.933               
    87 r.91                 -417.332      -476.622               
    88 r.92                 -112.584      -478.933               
    89 r.93                 -417.332      -476.622               
    90 r.94                 -417.332      -482.484               
    91 r.95                 -411.071      -480.134               
    92 r.96                 -417.332      -482.484               
    93 r.97                 -411.071      -480.134               
    94 r.98                  4.45692      -378.502               
    95 r.99                 -427.106      -427.672               
    96 r.100                 4.45692      -378.502               
    97 r.101                -427.106      -427.672               
    98 r.102                -430.391      -430.391               
    99 r.103                 14.1713        -453.9               
   100 r.104                -430.391      -430.391               
   101 r.105                 14.1713        -453.9               
   102 r.106                -112.584      -478.933               
   103 r.107                -417.332      -476.622               
   104 r.108                -112.584      -478.933               
   105 r.109                -417.332      -476.622               

   No. Column name       Activity     Lower bound   Upper bound
------ ------------    ------------- ------------- -------------
     1 tt                    83.3672             0               
     2 s_1_1        *              1             0             1 
     3 t_1_1                       0             0               
     4 s_2_1        *              0             0             1 
     5 t_2_1                 493.739             0               
     6 s_1_2        *              0             0             1 
     7 t_1_2                 78.2107             0               
     8 s_2_2        *              1             0             1 
     9 t_2_2                  9.7735             0               
    10 s_1_3        *              1             0             1 
    11 t_1_3                 13.0588             0               
    12 s_2_3        *              0             0             1 
    13 t_2_3                 68.4963             0               
    14 s_1_4        *              0             0             1 
    15 t_1_4                 195.251             0               
    16 s_2_4        *              1             0             1 
    17 t_2_4                       0             0               
    18 s_1_5        *              1             0             1 
    19 t_1_5                 82.6676             0               
    20 s_2_5        *              0             0             1 
    21 t_2_5                 82.6676             0               
    22 u_1_1_2      *              1             0             1 
    23 u_2_1_2      *              0             0             1 
    24 u_1_1_3      *              1             0             1 
    25 u_2_1_3      *              0             0             1 
    26 u_1_1_4      *              1             0             1 
    27 u_2_1_4      *              0             0             1 
    28 u_1_2_1      *              0             0             1 
    29 u_2_2_1      *              1             0             1 
    30 u_1_2_3      *              0             0             1 
    31 u_2_2_3      *              1             0             1 
    32 u_1_2_4      *              1             0             1 
    33 u_2_2_4      *              0             0             1 
    34 u_1_3_1      *              0             0             1 
    35 u_2_3_1      *              1             0             1 
    36 u_1_3_2      *              1             0             1 
    37 u_2_3_2      *              0             0             1 
    38 u_1_3_4      *              1             0             1 
    39 u_2_3_4      *              0             0             1 
    40 u_1_4_1      *              0             0             1 
    41 u_2_4_1      *              1             0             1 
    42 u_1_4_2      *              0             0             1 
    43 u_2_4_2      *              1             0             1 
    44 u_1_4_3      *              0             0             1 
    45 u_2_4_3      *              1             0             1 

Integer feasibility conditions:

KKT.PE: max.abs.err = 0.00e+00 on row 0
        max.rel.err = 0.00e+00 on row 0
        High quality

KKT.PB: max.abs.err = 2.58e-14 on row 76
        max.rel.err = 3.55e-15 on row 76
        High quality

End of output
